param w:= 
1 0.2 
2 1 
3 1 
4 0.33333333 
5 0.33333333
6 0.33333333 
7 1 
8 1 
9 1 
10 1 
11 1 
12 1 
13 1 
14 1 
15 0.33333333 
16 0.33333333 
17 1 
18 0.33333333 
19 0.33333333;

param m:= 
1 31 
2 36 
3 20 
4 3 
5 5 
6 3.5 
7 4.2 
8 0.9 
9 3.9
10 2.2 
11 22.8 
12 6.8 
13 19 
14 8.5 
15 2.2 
16 2.5 
17 10.8 
18 6.5 
19 6.5;
